Set parameter TokenServer to value "opt-license.discovery.wisc.edu"
Set parameter TimeLimit to value 600
Gurobi Optimizer version 9.5.1 build v9.5.1rc2 (linux64)
Thread count: 40 physical cores, 80 logical processors, using up to 32 threads
Optimize a model with 14771 rows, 22120 columns and 80358 nonzeros
Model fingerprint: 0xdb33f289
Variable types: 17220 continuous, 4900 integer (4900 binary)
Coefficient statistics:
  Matrix range     [1e+00, 2e+03]
  Objective range  [1e+00, 1e+01]
  Bounds range     [1e+00, 1e+00]
  RHS range        [1e+00, 6e+00]
Presolve removed 140 rows and 246 columns
Presolve time: 0.33s
Presolved: 14631 rows, 21874 columns, 79858 nonzeros
Variable types: 16974 continuous, 4900 integer (4900 binary)

Root relaxation: objective 9.205411e+01, 2018 iterations, 0.24 seconds (0.14 work units)

    Nodes    |    Current Node    |     Objective Bounds      |     Work
 Expl Unexpl |  Obj  Depth IntInf | Incumbent    BestBd   Gap | It/Node Time

     0     0   92.05411    0  177          -   92.05411      -     -    1s
H    0     0                      95.1815821   92.05411  3.29%     -    1s
     0     0   92.21066    0  202   95.18158   92.21066  3.12%     -    1s
     0     0   92.21066    0  176   95.18158   92.21066  3.12%     -    2s
H    0     0                      94.5378732   92.21066  2.46%     -    2s
     0     0   92.21816    0  208   94.53787   92.21816  2.45%     -    3s
     0     0   92.21816    0  178   94.53787   92.21816  2.45%     -    3s
H    0     0                      93.7094461   92.21816  1.59%     -    4s
     0     0   92.21816    0  202   93.70945   92.21816  1.59%     -    4s
     0     0   92.21816    0  167   93.70945   92.21816  1.59%     -    4s
     0     0   92.22465    0  195   93.70945   92.22465  1.58%     -    4s
     0     0   92.28068    0  195   93.70945   92.28068  1.52%     -    4s
     0     0   92.35505    0  182   93.70945   92.35505  1.45%     -    5s
H    0     0                      93.3018053   92.35505  1.01%     -    5s
     0     0   92.40611    0  199   93.30181   92.40611  0.96%     -    5s
     0     0   92.40611    0  136   93.30181   92.40611  0.96%     -    5s
     0     0   92.40611    0  140   93.30181   92.40611  0.96%     -    5s
     0     0   92.40611    0  154   93.30181   92.40611  0.96%     -    5s
     0     0   92.40899    0  155   93.30181   92.40899  0.96%     -    5s
     0     0   92.41295    0  156   93.30181   92.41295  0.95%     -    5s
H    0     0                      92.5378732   92.41295  0.14%     -    5s

Cutting planes:
  Gomory: 1
  MIR: 12
  StrongCG: 2
  Flow cover: 23
  GUB cover: 6
  Zero half: 4

Explored 1 nodes (9667 simplex iterations) in 6.00 seconds (2.19 work units)
Thread count was 32 (of 80 available processors)

Solution count 5: 92.5379 93.3018 93.7094 ... 95.1816

Optimal solution found (tolerance 1.00e-04)
Best objective 9.253787324945e+01, best bound 9.253125568461e+01, gap 0.0072%
